TCS_Benchmarks/redos_fix/corpus2_output_distinct_2895_2894_0_0.smt2
(set-logic QF_S)
(declare-const x String)
(assert (str.in.re x (re.inter  (re.++ (re.* (re.union (re.range "\u{09}" "\u{0d}") (re.range "\u{20}" "\u{20}") (re.range "\u{85}" "\u{85}") (re.range "\u{a0}" "\u{a0}")) ) (re.+  (re.union  (str.to_re "\u{09}") (re.union  (str.to.re "\u{3a}")  (str.to.re "\u{5f}"))) ))  (re.++ (re.* (re.union (re.range "\u{09}" "\u{0d}") (re.range "\u{20}" "\u{20}") (re.range "\u{85}" "\u{85}") (re.range "\u{a0}" "\u{a0}")) ) (re.+  (re.union  (str.to_re "\u{09}") (re.union  (str.to.re "\u{3a}")  (str.to.re "\u{5f}"))) )) )))
(check-sat)
(get-model)