TCS_Benchmarks/redos_fix/corpus2_output_distinct_2895_2894_0_0.txt
(\s*)([\t:_]+)
(\s*)([\t:_]+)